

******************************************************************************
This program contains Ipopt, a library for large-scale nonlinear optimization.
 Ipopt is released as open source code under the Eclipse Public License (EPL).
         For more information visit http://projects.coin-or.org/Ipopt
******************************************************************************

This is Ipopt version 3.12.8, running with linear solver mumps.
NOTE: Other linear solvers might be more efficient (see Ipopt documentation).

Number of nonzeros in equality constraint Jacobian...:        0
Number of nonzeros in inequality constraint Jacobian.:        0
Number of nonzeros in Lagrangian Hessian.............:       21

Total number of variables............................:        6
                     variables with only lower bounds:        2
                variables with lower and upper bounds:        0
                     variables with only upper bounds:        0
Total number of equality constraints.................:        0
Total number of inequality constraints...............:        0
        inequality constraints with only lower bounds:        0
   inequality constraints with lower and upper bounds:        0
        inequality constraints with only upper bounds:        0

iter    objective    inf_pr   inf_du lg(mu)  ||d||  lg(rg) alpha_du alpha_pr  ls
   0  3.5901662e+03 0.00e+00 1.00e+02  -1.0 0.00e+00    -  0.00e+00 0.00e+00   0
   1  2.0216047e+03 0.00e+00 7.33e+01  -1.0 7.33e-01   2.0 1.00e+00 1.00e+00f  1
   2  6.2239163e+02 0.00e+00 3.52e+01  -1.0 1.06e+00   1.5 1.00e+00 1.00e+00f  1
   3  2.2671976e+02 0.00e+00 8.56e+00  -1.0 7.71e-01   1.0 1.00e+00 1.00e+00f  1
   4  2.0517400e+02 0.00e+00 4.10e+00  -1.0 1.38e-01   1.5 1.00e+00 1.00e+00f  1
   5  1.6259433e+02 0.00e+00 7.32e+00  -1.0 3.98e-01   1.0 1.00e+00 1.00e+00f  1
   6  1.5572923e+02 0.00e+00 8.35e+00  -1.0 3.95e-02   2.3 1.00e+00 1.00e+00f  1
   7  1.3506424e+02 0.00e+00 8.89e+00  -1.0 2.02e-01   1.8 1.00e+00 5.00e-01f  2
   8  1.2363442e+02 0.00e+00 2.41e+01  -1.0 1.77e-01   1.4 1.00e+00 5.00e-01f  2
   9  8.2264098e+01 0.00e+00 5.60e+00  -1.0 3.52e-01   0.9 1.00e+00 1.00e+00f  1
iter    objective    inf_pr   inf_du lg(mu)  ||d||  lg(rg) alpha_du alpha_pr  ls
  10  8.2921105e+00 0.00e+00 4.73e+00  -1.0 3.07e+01    -  3.92e-01 1.00e+00f  1
  11  5.5596698e+00 0.00e+00 1.49e+00  -1.0 8.68e-02   0.4 1.00e+00 1.00e+00f  1
  12  4.0523851e+00 0.00e+00 5.54e-01  -1.0 1.66e-01  -0.1 1.00e+00 1.00e+00f  1
  13  6.7416005e-01 0.00e+00 5.76e-01  -1.7 1.03e+01    -  6.61e-01 1.00e+00f  1
  14  6.1933405e-01 0.00e+00 4.08e-02  -1.7 3.42e-02  -0.5 1.00e+00 1.00e+00f  1
  15  5.7855724e-01 0.00e+00 9.51e-03  -2.5 9.78e-02  -1.0 1.00e+00 1.00e+00f  1
  16  5.2360931e-01 0.00e+00 1.83e-02  -3.8 1.94e-01  -1.5 1.00e+00 1.00e+00f  1
  17  4.1473705e-01 0.00e+00 1.71e-01  -3.8 4.05e-01  -2.0 1.00e+00 1.00e+00f  1
  18  2.1703859e-01 0.00e+00 9.01e-01  -3.8 5.55e+00    -  1.00e+00 5.00e-01f  2
  19  1.7703932e-01 0.00e+00 5.61e-02  -3.8 9.11e-01  -2.4 1.00e+00 5.00e-01f  2
iter    objective    inf_pr   inf_du lg(mu)  ||d||  lg(rg) alpha_du alpha_pr  ls
  20  1.6726423e-01 0.00e+00 1.90e-01  -3.8 2.12e+01    -  3.25e-01 3.12e-02f  6
  21  1.4658358e-01 0.00e+00 4.73e-01  -3.8 1.76e+00    -  1.00e+00 1.00e+00f  1
  22  1.3592969e-01 0.00e+00 1.03e-01  -3.8 3.79e-01    -  1.00e+00 1.00e+00f  1
  23  1.3060235e-01 0.00e+00 3.44e-01  -3.8 1.37e+00    -  1.00e+00 5.00e-01f  2
  24  1.2293789e-01 0.00e+00 1.53e-01  -3.8 5.03e-01    -  1.00e+00 1.00e+00f  1
  25  1.2036083e-01 0.00e+00 5.58e-01  -3.8 9.70e-01    -  1.00e+00 1.00e+00f  1
  26  1.1085370e-01 0.00e+00 4.44e-02  -3.8 3.00e-01    -  1.00e+00 1.00e+00f  1
  27  1.0743660e-01 0.00e+00 1.95e-01  -3.8 2.14e+00    -  1.00e+00 2.50e-01f  3
  28  1.0319237e-01 0.00e+00 2.95e-01  -3.8 7.30e-01    -  1.00e+00 1.00e+00f  1
  29  9.8486174e-02 0.00e+00 1.27e-01  -3.8 4.95e-01    -  1.00e+00 1.00e+00f  1
iter    objective    inf_pr   inf_du lg(mu)  ||d||  lg(rg) alpha_du alpha_pr  ls
  30  9.7570964e-02 0.00e+00 5.13e-01  -3.8 9.98e-01    -  1.00e+00 1.00e+00f  1
  31  9.0983360e-02 0.00e+00 3.24e-02  -3.8 2.75e-01    -  1.00e+00 1.00e+00f  1
  32  8.8794647e-02 0.00e+00 2.08e-01  -3.8 2.44e+00    -  1.00e+00 2.50e-01f  3
  33  8.5806872e-02 0.00e+00 1.72e-01  -3.8 5.95e-01    -  1.00e+00 1.00e+00f  1
  34  8.3312535e-02 0.00e+00 2.23e-01  -3.8 6.91e-01    -  1.00e+00 1.00e+00f  1
  35  8.0702866e-02 0.00e+00 1.27e-01  -3.8 5.29e-01    -  1.00e+00 1.00e+00f  1
  36  7.9289697e-02 0.00e+00 3.23e-01  -3.8 8.48e-01    -  1.00e+00 1.00e+00f  1
  37  7.6454783e-02 0.00e+00 5.13e-02  -3.8 3.49e-01    -  1.00e+00 1.00e+00f  1
  38  7.5725695e-02 0.00e+00 3.27e-01  -3.8 1.66e+00    -  1.00e+00 5.00e-01f  2
  39  7.3150782e-02 0.00e+00 4.24e-02  -3.8 3.22e-01    -  1.00e+00 1.00e+00f  1
iter    objective    inf_pr   inf_du lg(mu)  ||d||  lg(rg) alpha_du alpha_pr  ls
  40  7.3009943e-02 0.00e+00 3.73e-01  -3.8 1.83e+00    -  1.00e+00 5.00e-01f  2
  41  7.0266720e-02 0.00e+00 2.69e-02  -3.8 2.65e-01    -  1.00e+00 1.00e+00f  1
  42  6.9383564e-02 0.00e+00 1.64e-01  -3.8 2.38e+00    -  1.00e+00 2.50e-01f  3
  43  6.8092467e-02 0.00e+00 1.20e-01  -3.8 5.45e-01    -  1.00e+00 1.00e+00f  1
  44  6.7145425e-02 0.00e+00 1.99e-01  -3.8 7.10e-01    -  1.00e+00 1.00e+00f  1
  45  6.5920059e-02 0.00e+00 7.01e-02  -3.8 4.28e-01    -  1.00e+00 1.00e+00f  1
  46  6.5290964e-02 0.00e+00 1.44e-01  -3.8 1.06e+00    -  1.00e+00 5.00e-01f  2
  47  6.4367243e-02 0.00e+00 1.13e-01  -3.8 5.47e-01    -  1.00e+00 1.00e+00f  1
  48  6.3646999e-02 0.00e+00 1.64e-01  -3.8 6.61e-01    -  1.00e+00 1.00e+00f  1
  49  6.2793908e-02 0.00e+00 7.48e-02  -3.8 4.52e-01    -  1.00e+00 1.00e+00f  1
iter    objective    inf_pr   inf_du lg(mu)  ||d||  lg(rg) alpha_du alpha_pr  ls
  50  6.2770210e-02 0.00e+00 2.92e-01  -3.8 8.93e-01    -  1.00e+00 1.00e+00f  1
  51  6.1443142e-02 0.00e+00 1.92e-02  -3.8 2.39e-01    -  1.00e+00 1.00e+00f  1
  52  6.1090887e-02 0.00e+00 1.42e-01  -3.8 2.39e+00    -  1.00e+00 2.50e-01f  3
  53  6.0483955e-02 0.00e+00 7.02e-02  -3.8 4.47e-01    -  1.00e+00 1.00e+00f  1
  54  6.0400901e-02 0.00e+00 2.40e-01  -3.8 8.29e-01    -  1.00e+00 1.00e+00f  1
  55  5.9531823e-02 0.00e+00 2.05e-02  -3.8 2.57e-01    -  1.00e+00 1.00e+00f  1
  56  5.9278416e-02 0.00e+00 1.07e-01  -3.8 2.10e+00    -  1.00e+00 2.50e-01f  3
  57  5.8886299e-02 0.00e+00 8.75e-02  -3.8 5.24e-01    -  1.00e+00 1.00e+00f  1
  58  5.8581442e-02 0.00e+00 1.16e-01  -3.8 6.10e-01    -  1.00e+00 1.00e+00f  1
  59  5.8222947e-02 0.00e+00 6.18e-02  -3.8 4.53e-01    -  1.00e+00 1.00e+00f  1
iter    objective    inf_pr   inf_du lg(mu)  ||d||  lg(rg) alpha_du alpha_pr  ls
  60  5.8152452e-02 0.00e+00 1.84e-01  -3.8 7.84e-01    -  1.00e+00 1.00e+00f  1
  61  5.7672698e-02 0.00e+00 2.06e-02  -3.8 2.74e-01    -  1.00e+00 1.00e+00f  1
  62  5.7534435e-02 0.00e+00 7.45e-02  -3.8 1.81e+00    -  1.00e+00 2.50e-01f  3
  63  5.7350838e-02 0.00e+00 1.02e-01  -3.8 6.04e-01    -  1.00e+00 1.00e+00f  1
  64  5.7118788e-02 0.00e+00 5.10e-02  -3.8 4.35e-01    -  1.00e+00 1.00e+00f  1
  65  5.7128439e-02 0.00e+00 1.68e-01  -3.8 7.90e-01    -  1.00e+00 1.00e+00f  1
  66  5.6780652e-02 0.00e+00 1.52e-02  -3.8 2.48e-01    -  1.00e+00 1.00e+00f  1
  67  5.6704829e-02 0.00e+00 7.25e-02  -3.8 1.94e+00    -  1.00e+00 2.50e-01f  3
  68  5.6577308e-02 0.00e+00 6.64e-02  -3.8 5.13e-01    -  1.00e+00 1.00e+00f  1
  69  5.6472504e-02 0.00e+00 7.02e-02  -3.8 5.33e-01    -  1.00e+00 1.00e+00f  1
iter    objective    inf_pr   inf_du lg(mu)  ||d||  lg(rg) alpha_du alpha_pr  ls
  70  5.6368134e-02 0.00e+00 5.66e-02  -3.8 4.83e-01    -  1.00e+00 1.00e+00f  1
  71  5.6302526e-02 0.00e+00 7.59e-02  -3.8 5.63e-01    -  1.00e+00 1.00e+00f  1
  72  5.6206661e-02 0.00e+00 3.88e-02  -3.8 4.08e-01    -  1.00e+00 1.00e+00f  1
  73  5.6240227e-02 0.00e+00 1.20e-01  -3.8 7.19e-01    -  1.00e+00 1.00e+00f  1
  74  5.6087951e-02 0.00e+00 1.21e-02  -3.8 2.36e-01    -  1.00e+00 1.00e+00f  1
  75  5.6071343e-02 0.00e+00 4.78e-02  -3.8 1.66e+00    -  1.00e+00 2.50e-01f  3
  76  5.6044911e-02 0.00e+00 5.86e-02  -3.8 5.15e-01    -  1.00e+00 1.00e+00f  1
  77  5.6002737e-02 0.00e+00 3.48e-02  -3.8 4.01e-01    -  1.00e+00 1.00e+00f  1
  78  5.6022319e-02 0.00e+00 7.98e-02  -3.8 6.08e-01    -  1.00e+00 1.00e+00f  1
  79  5.5961724e-02 0.00e+00 1.42e-02  -3.8 2.62e-01    -  1.00e+00 1.00e+00f  1
iter    objective    inf_pr   inf_du lg(mu)  ||d||  lg(rg) alpha_du alpha_pr  ls
  80  5.5997171e-02 0.00e+00 7.42e-02  -3.8 1.13e+00    -  1.00e+00 5.00e-01f  2
  81  5.5950312e-02 0.00e+00 1.23e-02  -3.8 2.46e-01    -  1.00e+00 1.00e+00f  1
  82  5.5991791e-02 0.00e+00 6.97e-02  -3.8 1.11e+00    -  1.00e+00 5.00e-01f  2
  83  5.5955164e-02 0.00e+00 1.01e-02  -3.8 2.26e-01    -  1.00e+00 1.00e+00f  1
  84  5.6004589e-02 0.00e+00 6.78e-02  -3.8 1.12e+00    -  1.00e+00 5.00e-01f  2
  85  5.5973452e-02 0.00e+00 7.44e-03  -3.8 1.97e-01    -  1.00e+00 1.00e+00f  1
  86  5.6037434e-02 0.00e+00 7.16e-02  -3.8 1.17e+00    -  1.00e+00 5.00e-01f  2
  87  5.6003416e-02 0.00e+00 4.38e-03  -3.8 1.53e-01    -  1.00e+00 1.00e+00f  1
  88  5.6025619e-02 0.00e+00 2.50e-02  -3.8 1.34e+00    -  1.00e+00 2.50e-01f  3
  89  5.6044877e-02 0.00e+00 2.27e-02  -3.8 3.46e-01    -  1.00e+00 1.00e+00f  1
iter    objective    inf_pr   inf_du lg(mu)  ||d||  lg(rg) alpha_du alpha_pr  ls
  90  5.6065788e-02 0.00e+00 2.10e-02  -3.8 3.33e-01    -  1.00e+00 1.00e+00f  1
  91  5.6087124e-02 0.00e+00 1.84e-02  -3.8 3.14e-01    -  1.00e+00 1.00e+00f  1
  92  5.6109865e-02 0.00e+00 1.72e-02  -3.8 3.05e-01    -  1.00e+00 1.00e+00f  1
  93  5.6131384e-02 0.00e+00 1.40e-02  -3.8 2.76e-01    -  1.00e+00 1.00e+00f  1
  94  5.6154918e-02 0.00e+00 1.40e-02  -3.8 2.76e-01    -  1.00e+00 1.00e+00f  1
  95  5.6174380e-02 0.00e+00 9.38e-03  -3.8 2.27e-01    -  1.00e+00 1.00e+00f  1
  96  5.6198225e-02 0.00e+00 1.15e-02  -3.8 2.53e-01    -  1.00e+00 1.00e+00f  1
  97  5.6212973e-02 0.00e+00 4.71e-03  -3.8 1.62e-01    -  1.00e+00 1.00e+00f  1
  98  5.6236994e-02 0.00e+00 1.00e-02  -3.8 2.36e-01    -  1.00e+00 1.00e+00f  1
  99  5.6244953e-02 0.00e+00 1.30e-03  -3.8 8.59e-02    -  1.00e+00 1.00e+00f  1
iter    objective    inf_pr   inf_du lg(mu)  ||d||  lg(rg) alpha_du alpha_pr  ls
 100  5.6212274e-02 0.00e+00 4.92e-02  -5.7 4.15e+00    -  1.00e+00 1.25e-01f  4
 101  5.6166800e-02 0.00e+00 1.94e-02  -5.7 3.26e-01    -  1.00e+00 1.00e+00f  1
 102  5.6141358e-02 0.00e+00 3.29e-02  -5.7 7.14e-01    -  1.00e+00 5.00e-01f  2
 103  5.6107601e-02 0.00e+00 3.06e-02  -5.7 4.07e-01    -  1.00e+00 1.00e+00f  1
 104  5.6077955e-02 0.00e+00 2.85e-02  -5.7 3.91e-01    -  1.00e+00 1.00e+00f  1
 105  5.6052117e-02 0.00e+00 2.60e-02  -5.7 3.72e-01    -  1.00e+00 1.00e+00f  1
 106  5.6030006e-02 0.00e+00 2.43e-02  -5.7 3.57e-01    -  1.00e+00 1.00e+00f  1
 107  5.6011157e-02 0.00e+00 2.12e-02  -5.7 3.33e-01    -  1.00e+00 1.00e+00f  1
 108  5.5995658e-02 0.00e+00 2.03e-02  -5.7 3.24e-01    -  1.00e+00 1.00e+00f  1
 109  5.5982747e-02 0.00e+00 1.60e-02  -5.7 2.86e-01    -  1.00e+00 1.00e+00f  1
iter    objective    inf_pr   inf_du lg(mu)  ||d||  lg(rg) alpha_du alpha_pr  ls
 110  5.5972854e-02 0.00e+00 1.73e-02  -5.7 2.97e-01    -  1.00e+00 1.00e+00f  1
 111  5.5964740e-02 0.00e+00 1.01e-02  -5.7 2.25e-01    -  1.00e+00 1.00e+00f  1
 112  5.5959437e-02 0.00e+00 1.61e-02  -5.7 2.85e-01    -  1.00e+00 1.00e+00f  1
 113  5.5954813e-02 0.00e+00 4.14e-03  -5.7 1.43e-01    -  1.00e+00 1.00e+00f  1
 114  5.5953434e-02 0.00e+00 1.81e-02  -5.7 3.00e-01    -  1.00e+00 1.00e+00f  1
 115  5.5950237e-02 0.00e+00 6.37e-04  -5.7 5.54e-02    -  1.00e+00 1.00e+00f  1
 116  5.5949509e-02 0.00e+00 3.17e-03  -5.7 2.37e-01    -  1.00e+00 5.00e-01f  2
 117  5.5949077e-02 0.00e+00 1.44e-03  -5.7 8.39e-02    -  1.00e+00 1.00e+00f  1
 118  5.5948924e-02 0.00e+00 5.53e-04  -5.7 5.20e-02    -  1.00e+00 1.00e+00f  1
 119  5.5948889e-02 0.00e+00 6.38e-05  -5.7 1.76e-02    -  1.00e+00 1.00e+00f  1
iter    objective    inf_pr   inf_du lg(mu)  ||d||  lg(rg) alpha_du alpha_pr  ls
 120  5.5948885e-02 0.00e+00 1.40e-06  -5.7 2.61e-03    -  1.00e+00 1.00e+00f  1
 121  5.5948844e-02 0.00e+00 7.58e-04  -8.6 6.08e-02    -  1.00e+00 1.00e+00f  1
 122  5.5948839e-02 0.00e+00 8.37e-10  -8.6 5.32e-05    -  1.00e+00 1.00e+00f  1

Number of Iterations....: 122

                                   (scaled)                 (unscaled)
Objective...............:   2.8001025746017412e-03    5.5948838996391831e-02
Dual infeasibility......:   8.3724516025886589e-10    1.6728992393606875e-08
Constraint violation....:   0.0000000000000000e+00    0.0000000000000000e+00
Complementarity.........:   2.5059033780036781e-09    5.0070445957281833e-08
Overall NLP error.......:   2.5059033780036781e-09    5.0070445957281833e-08


Number of objective function evaluations             = 263
Number of objective gradient evaluations             = 123
Number of equality constraint evaluations            = 0
Number of inequality constraint evaluations          = 0
Number of equality constraint Jacobian evaluations   = 0
Number of inequality constraint Jacobian evaluations = 0
Number of Lagrangian Hessian evaluations             = 122
Total CPU secs in IPOPT (w/o function evaluations)   =      0.033
Total CPU secs in NLP function evaluations           =      0.002

EXIT: Optimal Solution Found.
 
Ipopt 3.12.8: Optimal Solution Found
